p wcnf 26 30 27
27 -1 8 0
27 -2 9 0
27 -3 10 0
27 -5 11 0
27 -1 12 0
27 -2 13 0
27 -3 14 0
27 -4 15 0
27 -5 16 0
27 -5 17 0
27 -17 18 0
27 -9 -8 19 0
27 -13 -8 20 0
27 -7 -14 -12 21 0
27 -6 -15 -14 22 0
27 -18 -16 23 0
27 -7 -21 -15 24 0
27 -7 -22 -12 24 0
27 -18 -24 25 0
27 -17 -19 -25 26 0
27 -11 -26 19 0
27 -16 -26 24 0
27 -26 0
1 1 0
1 2 0
1 3 0
1 4 0
1 5 0
1 6 0
1 7 0
